data/rand/rand_057.gr
p tdp 15 58
1 4
1 5
1 8
1 9
1 10
1 11
1 13
1 15
2 4
2 5
2 6
2 12
2 15
3 4
3 6
3 7
3 8
3 10
3 11
3 15
4 5
4 6
4 7
4 10
5 7
5 8
5 10
5 13
5 14
5 15
6 7
6 9
6 11
6 12
6 13
7 8
7 9
7 10
7 11
7 13
7 14
7 15
8 13
8 14
9 10
9 11
9 12
9 14
9 15
10 11
10 12
11 12
11 13
11 15
12 14
12 15
13 15
14 15
