solutions/best/rand/rand_057.sol
11
0
1
2
13
3
4
5
14
7
4
9
11
12
13
14
